# Node Net
201   1
9992   1
 67   1
7301   2
3301   2
9982   2
501   3
4100   3
4500   3
9959   4
2400   4
1100   4
5600   5
 46   5
 59   5
  7   6
9985   6
2901   6
8201   7
9911   7
9998   7
 81   8
1701   8
8600   8
9978   9
 14   9
 25  10
2301  10
  2  11
9980  11
8601  12
9971  12
 79  13
 95  13
600  14
9961  14
9960  15
 17  15
9300  16
9908  16
 18  17
 74  17
9976  18
7701  18
9904  19
9001  19
